p cnf 115 389
c p weight 46 -1 0
c p weight -46 1 0
c p weight 48 6.12323399573676603586882014729198302312846062338790031898128063403419218957424163818359375E-17 0
c p weight -48 1 0
c p weight 49 1 0
c p weight -49 1 0
c p weight 50 -1 0
c p weight -50 1 0
c p weight 52 -1 0
c p weight -52 1 0
c p weight 55 -1 0
c p weight -55 1 0
c p weight 58 -1 0
c p weight -58 1 0
c p weight 61 -1 0
c p weight -61 1 0
c p weight 64 -1 0
c p weight -64 1 0
c p weight 67 -1 0
c p weight -67 1 0
c p weight 70 -1 0
c p weight -70 1 0
c p weight 73 -1 0
c p weight -73 1 0
c p weight 76 -1 0
c p weight -76 1 0
c p weight 79 -1 0
c p weight -79 1 0
c p weight 82 -1 0
c p weight -82 1 0
c p weight 85 -1 0
c p weight -85 1 0
c p weight 88 -1 0
c p weight -88 1 0
c p weight 91 -1 0
c p weight -91 1 0
c p weight 94 -1 0
c p weight -94 1 0
c p weight 97 -1 0
c p weight -97 1 0
c p weight 100 -1 0
c p weight -100 1 0
c p weight 103 -1 0
c p weight -103 1 0
c p weight 106 -1 0
c p weight -106 1 0
c p weight 109 -1 0
c p weight -109 1 0
c p weight 112 -1 0
c p weight -112 1 0
c p weight 115 -1 0
c p weight -115 1 0
-43 0
-41 0
-39 0
-37 0
-35 0
-33 0
-31 0
-29 0
-27 0
-25 0
-23 0
-21 0
-19 0
-17 0
-15 0
-13 0
-11 0
-9 0
-7 0
-5 0
-3 0
-1 0
45 43 -44 0
45 -43 44 0
-45 43 44 0
-45 -43 -44 0
-46 43 0
-46 44 0
46 -43 -44 0
47 -43 45 0
-47 43 45 0
-48 45 0
47 -48 -43 0
-47 -48 43 0
47 48 43 -45 0
-47 48 -43 -45 0
-49 45 0
47 -49 43 0
-47 -49 -43 0
47 49 -43 -45 0
-47 49 43 -45 0
-50 47 0
-50 45 0
-50 -43 0
50 -47 43 -45 0
51 47 -45 0
51 -47 45 0
-51 47 45 0
-51 -47 -45 0
-52 47 0
-52 45 0
52 -47 -45 0
53 47 -41 0
53 -47 41 0
-53 47 41 0
-53 -47 -41 0
54 51 -42 0
54 -51 42 0
-54 51 42 0
-54 -51 -42 0
-55 47 0
-55 42 0
-55 41 -51 0
-55 -41 51 0
55 -47 41 51 -42 0
55 -47 -41 -51 -42 0
56 53 -39 0
56 -53 39 0
-56 53 39 0
-56 -53 -39 0
57 42 -40 0
57 -42 40 0
-57 42 40 0
-57 -42 -40 0
-58 53 0
-58 40 0
-58 39 -42 0
-58 -39 42 0
58 -53 39 42 -40 0
58 -53 -39 -42 -40 0
59 56 -37 0
59 -56 37 0
-59 56 37 0
-59 -56 -37 0
60 40 -38 0
60 -40 38 0
-60 40 38 0
-60 -40 -38 0
-61 56 0
-61 38 0
-61 37 -40 0
-61 -37 40 0
61 -56 37 40 -38 0
61 -56 -37 -40 -38 0
62 59 -35 0
62 -59 35 0
-62 59 35 0
-62 -59 -35 0
63 38 -36 0
63 -38 36 0
-63 38 36 0
-63 -38 -36 0
-64 59 0
-64 36 0
-64 35 -38 0
-64 -35 38 0
64 -59 35 38 -36 0
64 -59 -35 -38 -36 0
65 62 -33 0
65 -62 33 0
-65 62 33 0
-65 -62 -33 0
66 36 -34 0
66 -36 34 0
-66 36 34 0
-66 -36 -34 0
-67 62 0
-67 34 0
-67 33 -36 0
-67 -33 36 0
67 -62 33 36 -34 0
67 -62 -33 -36 -34 0
68 65 -31 0
68 -65 31 0
-68 65 31 0
-68 -65 -31 0
69 34 -32 0
69 -34 32 0
-69 34 32 0
-69 -34 -32 0
-70 65 0
-70 32 0
-70 31 -34 0
-70 -31 34 0
70 -65 31 34 -32 0
70 -65 -31 -34 -32 0
71 68 -29 0
71 -68 29 0
-71 68 29 0
-71 -68 -29 0
72 32 -30 0
72 -32 30 0
-72 32 30 0
-72 -32 -30 0
-73 68 0
-73 30 0
-73 29 -32 0
-73 -29 32 0
73 -68 29 32 -30 0
73 -68 -29 -32 -30 0
74 71 -27 0
74 -71 27 0
-74 71 27 0
-74 -71 -27 0
75 30 -28 0
75 -30 28 0
-75 30 28 0
-75 -30 -28 0
-76 71 0
-76 28 0
-76 27 -30 0
-76 -27 30 0
76 -71 27 30 -28 0
76 -71 -27 -30 -28 0
77 74 -25 0
77 -74 25 0
-77 74 25 0
-77 -74 -25 0
78 28 -26 0
78 -28 26 0
-78 28 26 0
-78 -28 -26 0
-79 74 0
-79 26 0
-79 25 -28 0
-79 -25 28 0
79 -74 25 28 -26 0
79 -74 -25 -28 -26 0
80 77 -23 0
80 -77 23 0
-80 77 23 0
-80 -77 -23 0
81 26 -24 0
81 -26 24 0
-81 26 24 0
-81 -26 -24 0
-82 77 0
-82 24 0
-82 23 -26 0
-82 -23 26 0
82 -77 23 26 -24 0
82 -77 -23 -26 -24 0
83 80 -21 0
83 -80 21 0
-83 80 21 0
-83 -80 -21 0
84 24 -22 0
84 -24 22 0
-84 24 22 0
-84 -24 -22 0
-85 80 0
-85 22 0
-85 21 -24 0
-85 -21 24 0
85 -80 21 24 -22 0
85 -80 -21 -24 -22 0
86 83 -19 0
86 -83 19 0
-86 83 19 0
-86 -83 -19 0
87 22 -20 0
87 -22 20 0
-87 22 20 0
-87 -22 -20 0
-88 83 0
-88 20 0
-88 19 -22 0
-88 -19 22 0
88 -83 19 22 -20 0
88 -83 -19 -22 -20 0
89 86 -17 0
89 -86 17 0
-89 86 17 0
-89 -86 -17 0
90 20 -18 0
90 -20 18 0
-90 20 18 0
-90 -20 -18 0
-91 86 0
-91 18 0
-91 17 -20 0
-91 -17 20 0
91 -86 17 20 -18 0
91 -86 -17 -20 -18 0
92 89 -15 0
92 -89 15 0
-92 89 15 0
-92 -89 -15 0
93 18 -16 0
93 -18 16 0
-93 18 16 0
-93 -18 -16 0
-94 89 0
-94 16 0
-94 15 -18 0
-94 -15 18 0
94 -89 15 18 -16 0
94 -89 -15 -18 -16 0
95 92 -13 0
95 -92 13 0
-95 92 13 0
-95 -92 -13 0
96 16 -14 0
96 -16 14 0
-96 16 14 0
-96 -16 -14 0
-97 92 0
-97 14 0
-97 13 -16 0
-97 -13 16 0
97 -92 13 16 -14 0
97 -92 -13 -16 -14 0
98 95 -11 0
98 -95 11 0
-98 95 11 0
-98 -95 -11 0
99 14 -12 0
99 -14 12 0
-99 14 12 0
-99 -14 -12 0
-100 95 0
-100 12 0
-100 11 -14 0
-100 -11 14 0
100 -95 11 14 -12 0
100 -95 -11 -14 -12 0
101 98 -9 0
101 -98 9 0
-101 98 9 0
-101 -98 -9 0
102 12 -10 0
102 -12 10 0
-102 12 10 0
-102 -12 -10 0
-103 98 0
-103 10 0
-103 9 -12 0
-103 -9 12 0
103 -98 9 12 -10 0
103 -98 -9 -12 -10 0
104 101 -7 0
104 -101 7 0
-104 101 7 0
-104 -101 -7 0
105 10 -8 0
105 -10 8 0
-105 10 8 0
-105 -10 -8 0
-106 101 0
-106 8 0
-106 7 -10 0
-106 -7 10 0
106 -101 7 10 -8 0
106 -101 -7 -10 -8 0
107 104 -5 0
107 -104 5 0
-107 104 5 0
-107 -104 -5 0
108 8 -6 0
108 -8 6 0
-108 8 6 0
-108 -8 -6 0
-109 104 0
-109 6 0
-109 5 -8 0
-109 -5 8 0
109 -104 5 8 -6 0
109 -104 -5 -8 -6 0
110 107 -3 0
110 -107 3 0
-110 107 3 0
-110 -107 -3 0
111 6 -4 0
111 -6 4 0
-111 6 4 0
-111 -6 -4 0
-112 107 0
-112 4 0
-112 3 -6 0
-112 -3 6 0
112 -107 3 6 -4 0
112 -107 -3 -6 -4 0
113 110 -1 0
113 -110 1 0
-113 110 1 0
-113 -110 -1 0
114 4 -2 0
114 -4 2 0
-114 4 2 0
-114 -4 -2 0
-115 110 0
-115 2 0
-115 1 -4 0
-115 -1 4 0
115 -110 1 4 -2 0
115 -110 -1 -4 -2 0
-113 0
-110 0
-114 0
-107 0
-111 0
-104 0
-108 0
-101 0
-105 0
-98 0
-102 0
-95 0
-99 0
-92 0
-96 0
-89 0
-93 0
-86 0
-90 0
-83 0
-87 0
-80 0
-84 0
-77 0
-81 0
-74 0
-78 0
-71 0
-75 0
-68 0
-72 0
-65 0
-69 0
-62 0
-66 0
-59 0
-63 0
-56 0
-60 0
-53 0
-57 0
-47 0
-54 0
